DIMACS2
20 31 71 83 162 183 5 315 148 26 19 62 177 263 193 194 229 248 123 13 0
p edge 320 2519
e 0 89 11.0
e 0 201 37.0
e 0 290 28.0
e 0 177 47.0
e 0 295 26.0
e 0 106 35.0
e 0 55 4.0
e 0 135 37.0
e 1 310 1.0
e 1 255 2.0
e 1 161 1.0
e 1 195 2.0
e 1 163 3.0
e 1 88 1.0
e 1 51 3.0
e 1 180 2.0
e 2 284 1.0
e 2 33 1.0
e 2 17 3.0
e 2 35 2.0
e 2 146 1.0
e 2 269 1.0
e 2 216 1.0
e 2 188 1.0
e 3 91 2.0
e 3 157 1.0
e 3 34 2.0
e 3 256 1.0
e 3 111 1.0
e 3 26 2.0
e 3 154 1.0
e 3 161 1.0
e 4 219 1.0
e 4 36 1.0
e 4 199 1.0
e 4 54 1.0
e 4 63 1.0
e 4 7 1.0
e 4 281 1.0
e 4 130 1.0
e 5 176 8.0
e 5 0 21.0
e 5 76 36.0
e 5 221 19.0
e 5 245 5.0
e 5 13 36.0
e 5 6 36.0
e 5 121 49.0
e 6 210 1.0
e 6 226 1.0
e 6 219 1.0
e 6 168 1.0
e 6 293 1.0
e 6 243 1.0
e 6 56 1.0
e 6 10 1.0
e 7 262 1.0
e 7 243 1.0
e 7 138 1.0
e 7 196 1.0
e 7 0 2.0
e 7 194 8.0
e 7 160 1.0
e 7 130 1.0
e 8 51 2.0
e 8 156 1.0
e 8 296 1.0
e 8 120 2.0
e 8 73 2.0
e 8 118 1.0
e 8 281 1.0
e 9 194 38.0
e 9 69 1.0
e 9 162 24.0
e 9 134 1.0
e 9 96 1.0
e 9 200 1.0
e 9 224 1.0
e 9 172 1.0
e 10 42 1.0
e 10 270 1.0
e 10 184 1.0
e 10 110 1.0
e 10 88 1.0
e 10 28 1.0
e 10 112 1.0
e 10 20 2.0
e 11 66 1.0
e 11 200 1.0
e 11 265 1.0
e 11 220 1.0
e 11 306 1.0
e 11 146 1.0
e 11 153 2.0
e 11 167 1.0
e 12 156 1.0
e 12 120 2.0
e 12 181 2.0
e 12 86 2.0
e 12 68 1.0
e 12 15 3.0
e 12 40 2.0
e 12 91 1.0
e 13 252 46.0
e 13 255 25.0
e 13 286 38.0
e 13 101 25.0
e 13 110 24.0
e 13 185 11.0
e 13 214 28.0
e 13 142 37.0
e 13 229 14.0
e 14 67 2.0
e 14 149 1.0
e 14 163 1.0
e 14 11 2.0
e 14 92 2.0
e 14 91 1.0
e 14 71 11.0
e 14 70 2.0
e 15 0 19.0
e 15 40 1.0
e 15 35 1.0
e 15 214 2.0
e 15 269 2.0
e 15 60 1.0
e 15 18 1.0
e 15 153 1.0
e 16 286 1.0
e 16 40 1.0
e 16 219 1.0
e 16 115 1.0
e 16 65 1.0
e 16 152 1.0
e 16 238 1.0
e 16 293 1.0
e 17 288 1.0
e 17 238 3.0
e 17 199 1.0
e 17 279 1.0
e 17 40 1.0
e 17 248 48.0
e 17 210 1.0
e 17 165 2.0
e 18 48 1.0
e 18 110 2.0
e 18 143 1.0
e 18 120 1.0
e 18 105 1.0
e 18 23 1.0
e 18 96 1.0
e 18 138 1.0
e 19 36 13.0
e 19 139 2.0
e 19 280 13.0
e 19 109 29.0
e 19 173 13.0
e 19 120 17.0
e 19 232 16.0
e 19 313 32.0
e 19 26 32.0
e 20 236 2.0
e 20 32 1.0
e 20 129 1.0
e 20 0 33.0
e 20 287 1.0
e 20 49 1.0
e 20 223 1.0
e 20 57 1.0
e 21 275 1.0
e 21 162 30.0
e 21 273 2.0
e 21 173 1.0
e 21 163 1.0
e 21 12 2.0
e 21 304 1.0
e 21 161 1.0
e 22 4 1.0
e 22 5 33.0
e 22 107 1.0
e 22 50 1.0
e 22 16 1.0
e 22 46 1.0
e 22 56 1.0
e 22 173 1.0
e 23 85 2.0
e 23 159 1.0
e 23 103 2.0
e 23 76 2.0
e 23 271 2.0
e 23 175 1.0
e 23 308 2.0
e 23 253 2.0
e 24 147 1.0
e 24 185 1.0
e 24 314 1.0
e 24 208 1.0
e 24 296 1.0
e 24 250 1.0
e 24 38 1.0
e 24 199 1.0
e 25 244 1.0
e 25 134 1.0
e 25 26 6.0
e 25 60 1.0
e 25 31 35.0
e 25 213 1.0
e 25 177 31.0
e 25 18 2.0
e 26 93 17.0
e 26 190 7.0
e 26 156 20.0
e 26 89 7.0
e 26 265 25.0
e 26 37 46.0
e 26 240 37.0
e 26 305 12.0
e 26 123 17.0
e 26 248 40.0
e 27 261 1.0
e 27 163 2.0
e 27 17 1.0
e 27 277 1.0
e 27 8 1.0
e 27 290 1.0
e 27 268 1.0
e 27 275 1.0
e 28 245 1.0
e 28 32 1.0
e 28 170 1.0
e 28 147 1.0
e 28 293 1.0
e 28 191 1.0
e 28 277 1.0
e 28 42 1.0
e 29 85 1.0
e 29 264 2.0
e 29 152 1.0
e 29 254 2.0
e 29 128 1.0
e 29 113 1.0
e 29 315 33.0
e 29 224 2.0
e 30 126 1.0
e 30 313 1.0
e 30 7 1.0
e 30 252 1.0
e 30 273 1.0
e 30 33 1.0
e 30 85 1.0
e 30 23 1.0
e 31 32 13.0
e 31 6 46.0
e 31 23 3.0
e 31 275 28.0
e 31 44 44.0
e 31 123 45.0
e 31 59 47.0
e 31 256 37.0
e 31 148 30.0
e 31 229 9.0
e 31 162 8.0
e 32 148 42.0
e 32 247 1.0
e 32 211 2.0
e 32 111 1.0
e 32 29 1.0
e 32 69 1.0
e 32 154 1.0
e 33 220 1.0
e 33 265 2.0
e 33 110 1.0
e 33 317 1.0
e 33 239 1.0
e 33 307 1.0
e 33 97 1.0
e 33 40 1.0
e 34 89 1.0
e 34 287 1.0
e 34 288 1.0
e 34 195 2.0
e 34 223 3.0
e 34 177 17.0
e 34 194 15.0
e 34 80 1.0
e 35 155 1.0
e 35 286 1.0
e 35 145 1.0
e 35 154 1.0
e 35 310 1.0
e 35 53 1.0
e 35 162 3.0
e 35 275 2.0
e 36 13 28.0
e 36 237 1.0
e 36 315 17.0
e 36 119 1.0
e 36 79 1.0
e 36 0 14.0
e 36 209 2.0
e 36 163 1.0
e 37 254 2.0
e 37 247 1.0
e 37 269 1.0
e 37 41 1.0
e 37 230 2.0
e 37 245 2.0
e 37 12 2.0
e 37 50 1.0
e 38 167 1.0
e 38 110 1.0
e 38 97 1.0
e 38 282 1.0
e 38 58 1.0
e 38 11 1.0
e 38 26 10.0
e 38 248 34.0
e 39 205 1.0
e 39 212 1.0
e 39 90 1.0
e 39 91 1.0
e 39 237 1.0
e 39 161 2.0
e 39 278 1.0
e 39 301 1.0
e 40 118 1.0
e 40 173 1.0
e 40 288 1.0
e 40 307 1.0
e 40 207 1.0
e 40 92 2.0
e 40 32 1.0
e 40 257 2.0
e 41 107 1.0
e 41 310 1.0
e 41 44 1.0
e 41 274 1.0
e 41 180 1.0
e 41 162 30.0
e 41 28 1.0
e 41 19 35.0
e 42 108 1.0
e 42 284 1.0
e 42 97 1.0
e 42 216 1.0
e 42 20 1.0
e 42 182 1.0
e 42 60 1.0
e 42 154 1.0
e 43 154 1.0
e 43 290 1.0
e 43 261 1.0
e 43 274 1.0
e 43 116 1.0
e 43 133 2.0
e 43 252 1.0
e 43 240 2.0
e 44 99 1.0
e 44 72 1.0
e 44 148 49.0
e 44 192 1.0
e 44 251 1.0
e 44 310 2.0
e 44 20 1.0
e 45 71 49.0
e 45 271 1.0
e 45 273 1.0
e 45 314 1.0
e 45 254 1.0
e 45 290 1.0
e 45 53 1.0
e 45 67 1.0
e 46 87 3.0
e 46 227 2.0
e 46 292 1.0
e 46 308 1.0
e 46 0 15.0
e 46 6 1.0
e 46 33 2.0
e 46 94 2.0
e 47 214 1.0
e 47 37 1.0
e 47 105 1.0
e 47 238 1.0
e 47 170 1.0
e 47 186 1.0
e 47 36 1.0
e 47 215 1.0
e 48 83 27.0
e 48 187 2.0
e 48 249 1.0
e 48 146 1.0
e 48 209 1.0
e 48 57 2.0
e 48 98 2.0
e 48 226 2.0
e 49 144 1.0
e 49 222 1.0
e 49 310 1.0
e 49 160 1.0
e 49 17 1.0
e 49 159 2.0
e 49 234 1.0
e 50 61 1.0
e 50 145 2.0
e 50 1 1.0
e 50 218 1.0
e 50 223 1.0
e 50 76 1.0
e 50 179 1.0
e 50 246 1.0
e 51 259 1.0
e 51 292 1.0
e 51 266 1.0
e 51 118 1.0
e 51 213 1.0
e 51 50 1.0
e 51 94 3.0
e 51 27 1.0
e 52 300 1.0
e 52 288 1.0
e 52 44 1.0
e 52 155 1.0
e 52 137 1.0
e 52 179 1.0
e 52 116 1.0
e 52 127 1.0
e 53 119 1.0
e 53 251 1.0
e 53 301 2.0
e 53 97 1.0
e 53 153 2.0
e 53 159 1.0
e 53 264 1.0
e 53 279 1.0
e 54 216 1.0
e 54 176 1.0
e 54 109 1.0
e 54 306 1.0
e 54 313 2.0
e 54 7 1.0
e 54 148 48.0
e 54 96 1.0
e 55 166 2.0
e 55 242 1.0
e 55 247 3.0
e 55 275 1.0
e 55 15 1.0
e 55 264 2.0
e 55 291 1.0
e 55 32 1.0
e 56 267 1.0
e 56 7 1.0
e 56 224 1.0
e 56 270 2.0
e 56 136 1.0
e 56 135 1.0
e 56 107 1.0
e 56 63 1.0
e 57 108 1.0
e 57 139 1.0
e 57 2 1.0
e 57 192 1.0
e 57 12 1.0
e 57 300 1.0
e 57 77 1.0
e 57 210 1.0
e 58 307 1.0
e 58 304 1.0
e 58 155 1.0
e 58 272 2.0
e 58 228 1.0
e 58 146 1.0
e 58 170 1.0
e 59 163 2.0
e 59 104 1.0
e 59 217 1.0
e 59 291 1.0
e 59 248 34.0
e 59 231 1.0
e 59 309 1.0
e 59 130 1.0
e 60 285 1.0
e 60 85 1.0
e 60 291 1.0
e 60 248 20.0
e 60 156 1.0
e 60 30 1.0
e 60 194 16.0
e 60 67 1.0
e 61 222 1.0
e 61 55 1.0
e 61 110 1.0
e 61 259 1.0
e 61 94 2.0
e 61 120 1.0
e 61 293 1.0
e 62 316 3.0
e 62 116 34.0
e 62 38 3.0
e 62 180 4.0
e 62 207 44.0
e 62 162 6.0
e 62 5 5.0
e 62 58 39.0
e 62 229 35.0
e 63 74 3.0
e 63 112 1.0
e 63 15 1.0
e 63 33 1.0
e 63 295 1.0
e 63 85 1.0
e 63 132 2.0
e 63 160 1.0
e 64 232 1.0
e 64 163 1.0
e 64 144 1.0
e 64 235 1.0
e 64 277 1.0
e 64 43 1.0
e 64 238 1.0
e 64 61 1.0
e 65 278 1.0
e 65 247 2.0
e 65 33 1.0
e 65 261 1.0
e 65 55 2.0
e 65 313 1.0
e 65 29 1.0
e 65 212 1.0
e 66 219 1.0
e 66 90 1.0
e 66 73 1.0
e 66 34 1.0
e 66 256 1.0
e 66 111 1.0
e 66 134 1.0
e 66 127 1.0
e 67 283 1.0
e 67 282 1.0
e 67 169 2.0
e 67 3 1.0
e 67 76 1.0
e 67 274 2.0
e 67 35 2.0
e 67 243 1.0
e 68 299 1.0
e 68 184 1.0
e 68 80 2.0
e 68 23 2.0
e 68 212 1.0
e 68 152 1.0
e 68 103 1.0
e 68 96 1.0
e 69 242 1.0
e 69 131 1.0
e 69 303 1.0
e 69 77 1.0
e 69 78 1.0
e 69 92 1.0
e 69 48 1.0
e 69 259 1.0
e 70 310 1.0
e 70 131 2.0
e 70 22 1.0
e 70 68 1.0
e 70 241 2.0
e 70 302 2.0
e 70 298 2.0
e 70 62 24.0
e 71 93 46.0
e 71 186 49.0
e 71 144 11.0
e 71 292 47.0
e 71 72 35.0
e 71 123 39.0
e 71 149 16.0
e 71 183 38.0
e 71 31 48.0
e 71 229 43.0
e 71 248 4.0
e 71 263 37.0
e 71 315 31.0
e 72 97 1.0
e 72 204 1.0
e 72 262 1.0
e 72 138 2.0
e 72 255 2.0
e 72 165 1.0
e 72 259 1.0
e 72 43 1.0
e 73 165 1.0
e 73 114 1.0
e 73 44 1.0
e 73 179 1.0
e 73 97 1.0
e 73 88 2.0
e 73 141 1.0
e 73 164 1.0
e 74 124 2.0
e 74 197 1.0
e 74 4 1.0
e 74 309 1.0
e 74 251 1.0
e 74 31 12.0
e 74 72 1.0
e 74 232 1.0
e 75 33 1.0
e 75 158 1.0
e 75 68 1.0
e 75 146 1.0
e 75 17 1.0
e 75 162 49.0
e 75 312 2.0
e 75 139 1.0
e 76 287 1.0
e 76 234 1.0
e 76 130 1.0
e 76 186 1.0
e 76 238 1.0
e 76 92 1.0
e 76 19 44.0
e 76 187 1.0
e 77 15 1.0
e 77 53 1.0
e 77 245 1.0
e 77 243 1.0
e 77 149 1.0
e 77 152 1.0
e 77 201 1.0
e 78 28 1.0
e 78 210 1.0
e 78 246 1.0
e 78 105 1.0
e 78 200 1.0
e 78 295 1.0
e 78 189 1.0
e 78 207 1.0
e 79 200 1.0
e 79 272 2.0
e 79 309 1.0
e 79 24 1.0
e 79 251 1.0
e 79 242 1.0
e 79 306 1.0
e 79 75 1.0
e 80 259 2.0
e 80 277 1.0
e 80 254 1.0
e 80 311 1.0
e 80 257 1.0
e 80 298 2.0
e 80 20 1.0
e 80 203 1.0
e 81 62 11.0
e 81 105 1.0
e 81 99 1.0
e 81 135 2.0
e 81 207 2.0
e 81 249 1.0
e 81 124 1.0
e 81 32 1.0
e 82 315 28.0
e 82 177 7.0
e 82 242 1.0
e 82 116 2.0
e 82 199 2.0
e 82 166 1.0
e 82 219 1.0
e 82 188 1.0
e 83 211 11.0
e 83 286 42.0
e 83 188 12.0
e 83 233 27.0
e 83 163 20.0
e 83 103 5.0
e 83 202 19.0
e 83 12 1.0
e 83 315 33.0
e 84 205 1.0
e 84 179 1.0
e 84 318 1.0
e 84 21 1.0
e 84 190 1.0
e 84 121 1.0
e 84 208 1.0
e 84 90 1.0
e 85 150 1.0
e 85 306 1.0
e 85 241 1.0
e 85 237 1.0
e 85 280 1.0
e 85 80 2.0
e 85 277 1.0
e 85 207 1.0
e 86 232 2.0
e 86 196 3.0
e 86 235 1.0
e 86 213 1.0
e 86 47 1.0
e 86 211 1.0
e 86 78 1.0
e 86 270 2.0
e 87 108 1.0
e 87 23 1.0
e 87 165 2.0
e 87 54 1.0
e 87 109 1.0
e 87 194 31.0
e 87 218 1.0
e 87 17 1.0
e 88 135 1.0
e 88 120 1.0
e 88 133 1.0
e 88 5 45.0
e 88 185 2.0
e 88 53 1.0
e 88 308 3.0
e 88 129 2.0
e 89 113 1.0
e 89 218 1.0
e 89 164 1.0
e 89 41 1.0
e 89 81 1.0
e 89 120 2.0
e 89 4 1.0
e 89 134 1.0
e 90 36 1.0
e 90 4 1.0
e 90 217 1.0
e 90 251 1.0
e 90 144 1.0
e 90 246 1.0
e 90 295 1.0
e 90 133 1.0
e 91 154 1.0
e 91 87 3.0
e 91 137 1.0
e 91 68 1.0
e 91 299 1.0
e 91 156 2.0
e 91 222 1.0
e 91 270 1.0
e 92 120 1.0
e 92 229 35.0
e 92 238 1.0
e 92 304 1.0
e 92 264 1.0
e 92 292 2.0
e 92 111 1.0
e 93 225 1.0
e 93 240 1.0
e 93 203 1.0
e 93 108 1.0
e 93 63 1.0
e 93 248 3.0
e 93 151 1.0
e 93 58 2.0
e 94 0 11.0
e 94 43 1.0
e 94 245 1.0
e 94 280 2.0
e 94 127 1.0
e 94 50 2.0
e 94 125 1.0
e 94 234 2.0
e 95 313 1.0
e 95 222 1.0
e 95 261 1.0
e 95 316 2.0
e 95 245 2.0
e 95 122 1.0
e 95 161 1.0
e 95 209 1.0
e 96 25 1.0
e 96 189 1.0
e 96 224 1.0
e 96 159 2.0
e 96 127 1.0
e 96 5 42.0
e 96 274 2.0
e 96 202 1.0
e 97 77 1.0
e 97 46 2.0
e 97 278 1.0
e 97 209 1.0
e 97 59 1.0
e 97 295 1.0
e 97 208 1.0
e 97 116 2.0
e 98 75 2.0
e 98 30 1.0
e 98 159 1.0
e 98 151 2.0
e 98 289 1.0
e 98 121 1.0
e 98 158 1.0
e 98 81 1.0
e 99 90 1.0
e 99 229 33.0
e 99 253 2.0
e 99 263 41.0
e 99 193 45.0
e 99 243 1.0
e 99 89 1.0
e 100 190 1.0
e 100 156 1.0
e 100 316 1.0
e 100 167 2.0
e 100 179 1.0
e 100 216 1.0
e 101 52 2.0
e 101 1 1.0
e 101 297 3.0
e 101 200 2.0
e 101 276 2.0
e 101 166 2.0
e 101 226 1.0
e 102 229 29.0
e 102 67 1.0
e 102 270 2.0
e 102 287 1.0
e 102 115 2.0
e 102 237 1.0
e 102 133 2.0
e 102 308 2.0
e 103 109 1.0
e 103 55 2.0
e 103 176 1.0
e 103 152 1.0
e 103 108 1.0
e 103 19 48.0
e 103 211 2.0
e 103 86 1.0
e 104 65 1.0
e 104 259 1.0
e 104 25 1.0
e 104 170 1.0
e 104 74 1.0
e 104 24 1.0
e 104 169 1.0
e 104 312 1.0
e 105 157 1.0
e 105 158 1.0
e 105 166 1.0
e 105 30 1.0
e 105 297 1.0
e 105 241 1.0
e 105 126 1.0
e 105 145 1.0
e 106 237 1.0
e 106 18 1.0
e 106 148 46.0
e 106 275 2.0
e 106 204 1.0
e 106 41 1.0
e 106 117 1.0
e 106 286 1.0
e 107 24 1.0
e 107 101 1.0
e 107 191 1.0
e 107 1 2.0
e 107 184 1.0
e 107 108 1.0
e 107 242 1.0
e 107 2 1.0
e 108 67 1.0
e 108 197 1.0
e 108 3 1.0
e 108 167 1.0
e 108 239 1.0
e 108 250 1.0
e 108 146 1.0
e 108 121 1.0
e 109 74 2.0
e 109 311 2.0
e 109 211 1.0
e 109 316 3.0
e 109 206 1.0
e 109 47 2.0
e 109 25 2.0
e 109 207 3.0
e 110 300 1.0
e 110 177 37.0
e 110 245 2.0
e 110 314 1.0
e 110 131 1.0
e 110 74 1.0
e 110 8 1.0
e 110 259 3.0
e 111 139 1.0
e 111 106 1.0
e 111 147 2.0
e 111 17 2.0
e 111 91 1.0
e 111 278 1.0
e 111 250 1.0
e 111 102 1.0
e 112 127 1.0
e 112 188 1.0
e 112 165 1.0
e 112 263 28.0
e 112 184 2.0
e 112 210 1.0
e 112 192 1.0
e 112 117 2.0
e 113 124 1.0
e 113 201 1.0
e 113 147 1.0
e 113 175 1.0
e 113 154 1.0
e 113 99 1.0
e 113 103 1.0
e 113 115 1.0
e 114 56 1.0
e 114 2 1.0
e 114 52 1.0
e 114 159 1.0
e 114 109 1.0
e 114 47 1.0
e 114 53 1.0
e 114 224 1.0
e 115 13 1.0
e 115 56 1.0
e 115 44 1.0
e 115 49 1.0
e 115 73 1.0
e 115 123 38.0
e 116 94 2.0
e 116 275 1.0
e 116 285 1.0
e 116 176 1.0
e 116 220 2.0
e 116 273 1.0
e 116 175 2.0
e 116 49 3.0
e 117 35 1.0
e 117 3 1.0
e 117 49 1.0
e 117 108 1.0
e 117 21 1.0
e 117 220 1.0
e 117 298 1.0
e 118 34 1.0
e 118 254 1.0
e 118 244 1.0
e 118 72 2.0
e 118 92 2.0
e 118 230 1.0
e 118 113 1.0
e 118 107 1.0
e 119 33 1.0
e 119 91 1.0
e 119 109 2.0
e 119 69 1.0
e 119 142 1.0
e 119 156 2.0
e 119 235 1.0
e 119 232 1.0
e 120 221 1.0
e 120 46 2.0
e 120 190 1.0
e 120 86 1.0
e 120 185 1.0
e 120 24 1.0
e 120 314 1.0
e 120 15 2.0
e 121 228 1.0
e 121 215 1.0
e 121 190 1.0
e 121 164 1.0
e 121 194 49.0
e 121 152 1.0
e 121 86 1.0
e 121 168 1.0
e 122 3 1.0
e 122 234 2.0
e 122 191 1.0
e 122 124 1.0
e 122 12 2.0
e 122 272 2.0
e 122 58 3.0
e 122 206 1.0
e 123 165 11.0
e 123 100 2.0
e 123 282 4.0
e 123 310 34.0
e 123 2 34.0
e 123 238 9.0
e 123 286 45.0
e 124 93 1.0
e 124 105 1.0
e 124 187 1.0
e 124 116 2.0
e 124 317 2.0
e 124 285 1.0
e 124 53 1.0
e 124 1 2.0
e 125 264 1.0
e 125 51 1.0
e 125 221 1.0
e 125 10 1.0
e 125 302 1.0
e 125 154 1.0
e 125 227 1.0
e 125 11 1.0
e 126 280 1.0
e 126 236 2.0
e 126 198 1.0
e 126 223 2.0
e 126 119 2.0
e 126 201 2.0
e 126 294 2.0
e 126 74 2.0
e 127 314 1.0
e 127 233 1.0
e 127 150 1.0
e 127 90 1.0
e 127 57 1.0
e 127 295 1.0
e 127 174 1.0
e 127 256 2.0
e 128 1 1.0
e 128 25 1.0
e 128 238 1.0
e 128 110 1.0
e 128 93 1.0
e 128 247 1.0
e 128 312 2.0
e 128 86 1.0
e 129 16 1.0
e 129 105 1.0
e 129 310 1.0
e 129 76 1.0
e 129 42 1.0
e 129 297 1.0
e 129 63 2.0
e 129 197 1.0
e 130 265 1.0
e 130 153 2.0
e 130 177 7.0
e 130 298 2.0
e 130 212 1.0
e 130 207 1.0
e 130 84 1.0
e 130 187 2.0
e 131 249 1.0
e 131 87 2.0
e 131 307 1.0
e 131 212 1.0
e 131 292 1.0
e 131 46 1.0
e 131 170 1.0
e 131 223 1.0
e 132 186 1.0
e 132 114 1.0
e 132 262 1.0
e 132 294 1.0
e 132 216 1.0
e 132 61 1.0
e 132 106 1.0
e 132 38 1.0
e 133 16 3.0
e 133 23 1.0
e 133 89 1.0
e 133 257 1.0
e 133 272 1.0
e 133 31 27.0
e 133 53 1.0
e 134 104 1.0
e 134 295 1.0
e 134 164 1.0
e 134 272 2.0
e 134 103 1.0
e 134 60 1.0
e 134 291 1.0
e 134 235 1.0
e 135 295 1.0
e 135 117 3.0
e 135 69 1.0
e 135 112 1.0
e 135 259 2.0
e 135 46 2.0
e 135 171 1.0
e 136 303 1.0
e 136 217 1.0
e 136 235 1.0
e 136 47 1.0
e 136 103 1.0
e 136 94 1.0
e 136 93 1.0
e 136 188 1.0
e 137 79 1.0
e 137 3 1.0
e 137 77 1.0
e 137 230 1.0
e 137 1 1.0
e 137 243 1.0
e 137 212 1.0
e 137 206 1.0
e 138 203 1.0
e 138 266 1.0
e 138 254 1.0
e 138 173 1.0
e 138 262 1.0
e 138 277 1.0
e 138 51 1.0
e 138 297 1.0
e 139 123 38.0
e 139 2 1.0
e 139 207 1.0
e 139 68 1.0
e 139 120 2.0
e 139 150 1.0
e 139 260 1.0
e 140 27 1.0
e 140 278 2.0
e 140 309 1.0
e 140 170 1.0
e 140 122 1.0
e 140 50 1.0
e 140 173 1.0
e 140 196 1.0
e 141 208 1.0
e 141 134 1.0
e 141 127 1.0
e 141 24 1.0
e 141 45 2.0
e 141 252 1.0
e 141 116 1.0
e 141 48 1.0
e 142 121 1.0
e 142 316 1.0
e 142 148 21.0
e 142 271 1.0
e 142 195 1.0
e 142 4 1.0
e 142 150 2.0
e 142 59 1.0
e 143 151 1.0
e 143 189 1.0
e 143 217 1.0
e 143 240 1.0
e 143 262 2.0
e 143 136 1.0
e 143 17 3.0
e 143 230 1.0
e 144 279 1.0
e 144 241 1.0
e 144 166 1.0
e 144 22 1.0
e 144 5 42.0
e 144 318 1.0
e 144 182 1.0
e 144 209 2.0
e 145 180 2.0
e 145 179 2.0
e 145 168 2.0
e 145 314 1.0
e 145 144 1.0
e 145 270 1.0
e 145 217 1.0
e 145 166 1.0
e 146 106 1.0
e 146 144 2.0
e 146 95 3.0
e 146 133 2.0
e 146 191 1.0
e 146 109 1.0
e 146 261 1.0
e 146 302 1.0
e 147 212 1.0
e 147 105 2.0
e 147 114 1.0
e 147 171 1.0
e 147 293 2.0
e 147 198 1.0
e 147 95 2.0
e 147 83 41.0
e 148 170 36.0
e 148 162 41.0
e 148 13 13.0
e 148 8 39.0
e 148 96 7.0
e 148 257 30.0
e 148 224 9.0
e 148 76 37.0
e 149 312 1.0
e 149 295 1.0
e 149 20 1.0
e 149 141 1.0
e 149 205 1.0
e 149 304 1.0
e 149 62 24.0
e 149 260 1.0
e 150 225 2.0
e 150 203 1.0
e 150 297 1.0
e 150 28 2.0
e 150 292 1.0
e 150 119 2.0
e 150 196 1.0
e 150 223 2.0
e 151 42 1.0
e 151 192 2.0
e 151 5 26.0
e 151 246 1.0
e 151 84 1.0
e 151 276 2.0
e 151 287 1.0
e 151 242 1.0
e 152 298 2.0
e 152 295 1.0
e 152 200 1.0
e 152 33 1.0
e 152 122 3.0
e 152 192 3.0
e 152 4 1.0
e 153 131 1.0
e 153 203 1.0
e 153 293 1.0
e 153 138 1.0
e 153 173 1.0
e 153 317 3.0
e 153 297 2.0
e 153 128 1.0
e 154 308 2.0
e 154 226 1.0
e 154 40 1.0
e 154 254 2.0
e 154 313 2.0
e 154 137 1.0
e 154 94 1.0
e 154 227 1.0
e 155 131 1.0
e 155 53 1.0
e 155 257 1.0
e 155 54 3.0
e 155 166 2.0
e 155 195 1.0
e 155 46 1.0
e 155 167 1.0
e 156 133 2.0
e 156 295 1.0
e 156 109 1.0
e 156 9 1.0
e 156 49 2.0
e 156 75 1.0
e 156 44 1.0
e 156 57 3.0
e 157 14 2.0
e 157 149 1.0
e 157 269 1.0
e 157 44 1.0
e 157 234 1.0
e 157 108 1.0
e 157 69 3.0
e 157 142 2.0
e 158 235 1.0
e 158 78 1.0
e 158 206 1.0
e 158 155 1.0
e 158 301 1.0
e 158 102 1.0
e 158 154 1.0
e 158 263 33.0
e 159 40 1.0
e 159 177 9.0
e 159 260 3.0
e 159 316 1.0
e 159 227 2.0
e 159 14 1.0
e 159 139 1.0
e 160 185 1.0
e 160 298 2.0
e 160 180 1.0
e 160 222 1.0
e 160 206 1.0
e 160 17 1.0
e 160 190 1.0
e 160 60 1.0
e 161 312 2.0
e 161 310 3.0
e 161 137 1.0
e 161 126 1.0
e 161 206 1.0
e 161 237 2.0
e 161 40 1.0
e 161 187 1.0
e 162 199 45.0
e 162 287 17.0
e 162 195 16.0
e 162 161 43.0
e 162 255 25.0
e 162 83 41.0
e 162 158 14.0
e 162 204 19.0
e 163 270 2.0
e 163 285 1.0
e 163 35 1.0
e 163 45 2.0
e 163 202 1.0
e 163 117 2.0
e 163 135 1.0
e 163 112 1.0
e 164 282 1.0
e 164 181 1.0
e 164 146 2.0
e 164 52 1.0
e 164 206 1.0
e 164 210 1.0
e 164 196 2.0
e 164 161 1.0
e 165 121 1.0
e 165 278 1.0
e 165 211 3.0
e 165 45 3.0
e 165 107 1.0
e 165 88 2.0
e 165 15 1.0
e 165 5 15.0
e 166 129 1.0
e 166 233 1.0
e 166 259 1.0
e 166 122 1.0
e 166 97 2.0
e 166 164 1.0
e 166 229 15.0
e 166 60 1.0
e 167 237 1.0
e 167 270 2.0
e 167 285 1.0
e 167 218 1.0
e 167 146 1.0
e 167 246 1.0
e 167 227 2.0
e 167 256 1.0
e 168 78 1.0
e 168 143 1.0
e 168 209 2.0
e 168 268 1.0
e 168 310 1.0
e 168 258 1.0
e 168 207 1.0
e 169 50 1.0
e 169 80 1.0
e 169 149 1.0
e 169 162 46.0
e 169 254 2.0
e 169 79 2.0
e 169 38 1.0
e 169 127 1.0
e 170 41 1.0
e 170 65 1.0
e 170 175 1.0
e 170 149 1.0
e 170 161 2.0
e 170 76 1.0
e 170 118 1.0
e 170 194 4.0
e 171 202 1.0
e 171 212 1.0
e 171 289 1.0
e 171 133 2.0
e 171 259 1.0
e 171 273 1.0
e 171 48 1.0
e 171 247 1.0
e 172 251 1.0
e 172 233 1.0
e 172 201 2.0
e 172 260 2.0
e 172 294 1.0
e 172 221 1.0
e 172 31 22.0
e 172 305 2.0
e 173 48 1.0
e 173 222 1.0
e 173 253 1.0
e 173 189 1.0
e 173 177 2.0
e 173 273 1.0
e 173 17 1.0
e 173 166 1.0
e 174 94 2.0
e 174 247 2.0
e 174 8 1.0
e 174 184 1.0
e 174 231 2.0
e 174 141 1.0
e 174 199 2.0
e 175 167 2.0
e 175 223 1.0
e 175 99 1.0
e 175 253 1.0
e 175 244 1.0
e 175 150 1.0
e 175 134 1.0
e 175 159 1.0
e 176 282 1.0
e 176 124 1.0
e 176 312 1.0
e 176 260 1.0
e 176 220 1.0
e 176 229 19.0
e 176 28 1.0
e 176 84 1.0
e 177 152 45.0
e 177 167 6.0
e 177 2 13.0
e 177 144 25.0
e 177 157 1.0
e 177 246 34.0
e 177 304 35.0
e 177 255 15.0
e 178 87 1.0
e 178 72 1.0
e 178 98 1.0
e 178 257 2.0
e 178 170 1.0
e 178 157 1.0
e 178 115 1.0
e 178 133 1.0
e 179 64 1.0
e 179 212 1.0
e 179 237 1.0
e 179 209 1.0
e 179 69 1.0
e 179 219 1.0
e 179 218 1.0
e 179 107 1.0
e 180 119 1.0
e 180 67 1.0
e 180 137 1.0
e 180 55 1.0
e 180 314 1.0
e 180 193 39.0
e 180 34 1.0
e 180 9 1.0
e 181 161 1.0
e 181 312 1.0
e 181 267 1.0
e 181 168 1.0
e 181 92 3.0
e 181 146 1.0
e 181 246 1.0
e 181 273 1.0
e 182 19 18.0
e 182 292 1.0
e 182 168 1.0
e 182 21 1.0
e 182 50 1.0
e 182 54 2.0
e 182 57 1.0
e 182 286 1.0
e 183 2 28.0
e 183 15 34.0
e 183 184 15.0
e 183 80 17.0
e 183 282 45.0
e 183 248 30.0
e 183 215 37.0
e 183 301 40.0
e 183 263 19.0
e 183 315 30.0
e 184 135 1.0
e 184 73 1.0
e 184 64 1.0
e 184 93 1.0
e 184 13 10.0
e 184 110 1.0
e 184 106 1.0
e 185 283 1.0
e 185 69 2.0
e 185 98 1.0
e 185 82 2.0
e 185 236 2.0
e 185 147 1.0
e 185 243 2.0
e 185 184 2.0
e 186 13 2.0
e 186 128 1.0
e 186 281 1.0
e 186 249 1.0
e 186 63 2.0
e 186 266 1.0
e 186 39 1.0
e 187 198 1.0
e 187 190 1.0
e 187 115 1.0
e 187 146 2.0
e 187 231 1.0
e 187 127 1.0
e 187 289 1.0
e 187 87 1.0
e 188 166 2.0
e 188 280 1.0
e 188 111 1.0
e 188 60 1.0
e 188 310 2.0
e 188 148 16.0
e 188 306 1.0
e 188 205 1.0
e 189 286 1.0
e 189 171 1.0
e 189 68 1.0
e 189 147 1.0
e 189 17 2.0
e 189 30 1.0
e 189 201 1.0
e 189 309 1.0
e 190 116 1.0
e 190 315 6.0
e 190 109 2.0
e 190 303 1.0
e 190 154 1.0
e 190 159 2.0
e 190 222 1.0
e 190 107 1.0
e 191 235 1.0
e 191 312 2.0
e 191 233 1.0
e 191 182 1.0
e 191 187 1.0
e 191 133 1.0
e 191 76 1.0
e 191 150 1.0
e 192 259 1.0
e 192 280 2.0
e 192 242 1.0
e 192 251 2.0
e 192 221 2.0
e 192 298 1.0
e 192 87 1.0
e 192 61 1.0
e 193 63 45.0
e 193 242 2.0
e 193 186 41.0
e 193 182 28.0
e 193 318 34.0
e 193 226 20.0
e 193 192 3.0
e 193 37 20.0
e 193 123 1.0
e 193 148 37.0
e 193 83 3.0
e 194 1 40.0
e 194 217 47.0
e 194 243 48.0
e 194 122 49.0
e 194 274 36.0
e 194 230 27.0
e 194 145 20.0
e 194 306 21.0
e 195 21 2.0
e 195 38 1.0
e 195 81 1.0
e 195 307 1.0
e 195 96 1.0
e 195 88 1.0
e 195 289 2.0
e 196 166 1.0
e 196 295 1.0
e 196 248 25.0
e 196 235 2.0
e 196 65 2.0
e 196 305 2.0
e 196 119 1.0
e 196 179 1.0
e 197 171 1.0
e 197 313 2.0
e 197 194 35.0
e 197 19 7.0
e 197 237 1.0
e 197 292 1.0
e 197 85 1.0
e 197 253 1.0
e 198 16 1.0
e 198 318 1.0
e 198 94 2.0
e 198 149 1.0
e 198 4 1.0
e 198 116 2.0
e 198 130 1.0
e 198 173 1.0
e 199 37 1.0
e 199 218 1.0
e 199 10 3.0
e 199 108 1.0
e 199 1 1.0
e 199 97 1.0
e 199 224 1.0
e 199 313 1.0
e 200 239 1.0
e 200 191 1.0
e 200 131 1.0
e 200 215 1.0
e 200 7 1.0
e 200 312 1.0
e 200 141 1.0
e 200 117 1.0
e 201 136 1.0
e 201 177 6.0
e 201 27 1.0
e 201 26 24.0
e 201 228 1.0
e 201 170 1.0
e 201 231 1.0
e 202 254 1.0
e 202 263 38.0
e 202 35 1.0
e 202 312 1.0
e 202 237 1.0
e 202 48 1.0
e 202 286 1.0
e 202 279 2.0
e 203 155 1.0
e 203 261 1.0
e 203 198 1.0
e 203 81 2.0
e 203 241 1.0
e 203 122 1.0
e 203 48 1.0
e 203 29 1.0
e 204 69 1.0
e 204 173 1.0
e 204 192 1.0
e 204 94 1.0
e 204 92 1.0
e 204 156 2.0
e 204 195 2.0
e 204 0 17.0
e 205 309 1.0
e 205 51 1.0
e 205 303 1.0
e 205 186 1.0
e 205 183 7.0
e 205 83 20.0
e 205 2 1.0
e 206 93 1.0
e 206 265 1.0
e 206 288 1.0
e 206 197 1.0
e 206 249 1.0
e 206 63 1.0
e 206 50 1.0
e 207 188 1.0
e 207 150 1.0
e 207 246 1.0
e 207 111 1.0
e 207 14 1.0
e 207 309 1.0
e 207 166 2.0
e 207 13 49.0
e 208 55 1.0
e 208 186 1.0
e 208 105 1.0
e 208 166 1.0
e 208 154 1.0
e 208 278 1.0
e 208 16 1.0
e 208 244 1.0
e 209 143 1.0
e 209 87 2.0
e 209 223 1.0
e 209 298 1.0
e 209 229 7.0
e 209 99 1.0
e 209 204 2.0
e 210 246 2.0
e 210 127 1.0
e 210 47 1.0
e 210 11 1.0
e 210 154 1.0
e 210 2 1.0
e 210 58 2.0
e 211 260 2.0
e 211 218 1.0
e 211 292 1.0
e 211 247 1.0
e 211 136 3.0
e 211 234 1.0
e 211 232 1.0
e 211 270 2.0
e 212 219 1.0
e 212 231 2.0
e 212 150 3.0
e 212 76 1.0
e 212 292 1.0
e 212 222 1.0
e 212 313 2.0
e 212 210 1.0
e 213 15 1.0
e 213 112 1.0
e 213 316 2.0
e 213 165 1.0
e 213 125 1.0
e 213 109 1.0
e 213 254 1.0
e 213 143 1.0
e 214 52 2.0
e 214 76 1.0
e 214 312 2.0
e 214 317 1.0
e 214 218 1.0
e 214 232 1.0
e 214 88 2.0
e 214 86 2.0
e 215 177 10.0
e 215 131 1.0
e 215 247 1.0
e 215 74 1.0
e 215 297 1.0
e 215 176 1.0
e 215 186 1.0
e 215 23 1.0
e 216 53 1.0
e 216 196 1.0
e 216 273 1.0
e 216 81 1.0
e 216 259 2.0
e 216 117 1.0
e 216 209 1.0
e 217 218 1.0
e 217 278 2.0
e 217 128 1.0
e 217 12 2.0
e 217 120 1.0
e 217 190 3.0
e 217 215 2.0
e 218 208 1.0
e 218 41 1.0
e 218 69 1.0
e 218 204 1.0
e 218 98 1.0
e 218 174 1.0
e 218 164 1.0
e 218 143 1.0
e 219 84 1.0
e 219 128 1.0
e 219 122 1.0
e 219 85 1.0
e 219 213 1.0
e 219 228 1.0
e 219 23 2.0
e 220 53 1.0
e 220 225 1.0
e 220 84 1.0
e 220 115 1.0
e 220 277 1.0
e 220 21 1.0
e 220 314 1.0
e 220 68 1.0
e 221 62 28.0
e 221 300 1.0
e 221 99 1.0
e 221 284 1.0
e 221 234 1.0
e 221 143 1.0
e 221 166 1.0
e 221 108 1.0
e 222 244 1.0
e 222 245 1.0
e 222 28 1.0
e 222 169 3.0
e 222 19 36.0
e 222 162 39.0
e 222 112 1.0
e 223 108 1.0
e 223 76 1.0
e 223 265 2.0
e 223 287 1.0
e 223 140 1.0
e 223 177 17.0
e 223 158 1.0
e 223 159 1.0
e 224 120 1.0
e 224 108 1.0
e 224 219 1.0
e 224 248 11.0
e 224 150 2.0
e 224 44 1.0
e 224 34 1.0
e 224 82 1.0
e 225 184 1.0
e 225 166 1.0
e 225 84 1.0
e 225 318 1.0
e 225 265 1.0
e 225 262 2.0
e 225 39 1.0
e 225 115 1.0
e 226 75 3.0
e 226 159 1.0
e 226 218 1.0
e 226 73 1.0
e 226 129 1.0
e 226 277 1.0
e 226 123 11.0
e 226 202 1.0
e 227 132 1.0
e 227 197 1.0
e 227 286 1.0
e 227 186 1.0
e 227 173 1.0
e 227 244 1.0
e 227 202 1.0
e 228 90 1.0
e 228 200 1.0
e 228 49 1.0
e 228 277 1.0
e 228 285 1.0
e 228 203 1.0
e 228 79 1.0
e 228 28 1.0
e 229 290 42.0
e 229 280 26.0
e 229 152 30.0
e 229 306 24.0
e 229 153 29.0
e 229 82 49.0
e 229 311 12.0
e 229 286 22.0
e 230 40 2.0
e 230 285 1.0
e 230 211 2.0
e 230 15 2.0
e 230 181 1.0
e 230 61 1.0
e 230 27 1.0
e 230 231 2.0
e 231 253 2.0
e 231 233 2.0
e 231 104 1.0
e 231 121 2.0
e 231 176 1.0
e 231 162 4.0
e 231 258 1.0
e 231 16 1.0
e 232 75 1.0
e 232 51 1.0
e 232 265 1.0
e 232 264 1.0
e 232 1 1.0
e 232 271 1.0
e 232 128 1.0
e 232 209 2.0
e 233 113 1.0
e 233 168 1.0
e 233 37 1.0
e 233 299 1.0
e 233 300 1.0
e 233 148 2.0
e 233 257 2.0
e 233 90 1.0
e 234 40 1.0
e 234 263 47.0
e 234 204 1.0
e 234 269 2.0
e 234 307 2.0
e 234 57 1.0
e 234 70 1.0
e 234 95 1.0
e 235 71 34.0
e 235 315 40.0
e 235 271 1.0
e 235 181 1.0
e 235 108 1.0
e 235 159 2.0
e 235 135 2.0
e 235 125 1.0
e 236 187 1.0
e 236 121 2.0
e 236 71 4.0
e 236 222 2.0
e 236 15 1.0
e 236 114 1.0
e 236 296 1.0
e 236 197 1.0
e 237 217 1.0
e 237 250 1.0
e 237 169 2.0
e 237 29 2.0
e 237 37 1.0
e 237 70 1.0
e 237 47 1.0
e 237 143 1.0
e 238 96 1.0
e 238 138 1.0
e 238 126 2.0
e 238 212 1.0
e 238 52 1.0
e 238 22 1.0
e 238 62 5.0
e 238 298 1.0
e 239 96 1.0
e 239 124 1.0
e 239 175 1.0
e 239 146 1.0
e 239 238 1.0
e 239 111 1.0
e 239 202 1.0
e 239 287 1.0
e 240 107 1.0
e 240 293 1.0
e 240 307 1.0
e 240 268 3.0
e 240 72 1.0
e 240 278 2.0
e 240 254 1.0
e 240 209 2.0
e 241 195 1.0
e 241 123 20.0
e 241 63 2.0
e 241 253 1.0
e 241 26 42.0
e 241 76 1.0
e 241 214 1.0
e 242 87 1.0
e 242 105 1.0
e 242 152 2.0
e 242 276 1.0
e 242 137 2.0
e 242 144 1.0
e 242 309 2.0
e 243 232 2.0
e 243 123 29.0
e 243 148 1.0
e 243 104 1.0
e 243 183 9.0
e 243 22 1.0
e 243 17 1.0
e 243 306 1.0
e 244 100 1.0
e 244 203 1.0
e 244 262 2.0
e 244 265 1.0
e 244 187 1.0
e 244 80 1.0
e 244 297 1.0
e 244 11 1.0
e 245 132 1.0
e 245 309 1.0
e 245 179 1.0
e 245 24 2.0
e 245 291 2.0
e 245 135 2.0
e 245 102 2.0
e 245 293 2.0
e 246 30 2.0
e 246 252 1.0
e 246 301 1.0
e 246 206 1.0
e 246 172 1.0
e 246 201 1.0
e 246 155 1.0
e 247 178 1.0
e 247 61 1.0
e 247 141 3.0
e 247 277 1.0
e 247 137 1.0
e 247 127 1.0
e 247 145 2.0
e 247 294 2.0
e 248 299 38.0
e 248 146 49.0
e 248 7 3.0
e 248 126 46.0
e 248 247 30.0
e 248 150 37.0
e 248 62 48.0
e 249 14 1.0
e 249 300 1.0
e 249 74 2.0
e 249 266 2.0
e 249 43 1.0
e 249 0 10.0
e 249 219 1.0
e 249 21 1.0
e 250 195 3.0
e 250 60 1.0
e 250 172 1.0
e 250 43 1.0
e 250 311 1.0
e 250 149 1.0
e 250 270 1.0
e 250 217 1.0
e 251 286 1.0
e 251 176 1.0
e 251 304 1.0
e 251 240 1.0
e 251 253 2.0
e 251 8 2.0
e 251 239 1.0
e 251 31 8.0
e 252 239 1.0
e 252 117 1.0
e 252 211 1.0
e 252 62 32.0
e 252 143 1.0
e 252 282 1.0
e 252 158 1.0
e 252 159 1.0
e 253 56 2.0
e 253 260 1.0
e 253 210 1.0
e 253 228 1.0
e 253 135 2.0
e 253 97 1.0
e 253 51 2.0
e 253 123 47.0
e 254 316 1.0
e 254 12 1.0
e 254 85 1.0
e 254 193 21.0
e 254 108 2.0
e 254 205 1.0
e 254 314 1.0
e 255 209 1.0
e 255 282 1.0
e 255 54 2.0
e 255 172 1.0
e 255 49 1.0
e 255 271 1.0
e 255 123 3.0
e 255 51 1.0
e 256 37 2.0
e 256 279 1.0
e 256 54 1.0
e 256 174 1.0
e 256 57 1.0
e 256 278 2.0
e 256 230 1.0
e 256 285 1.0
e 257 250 1.0
e 257 119 2.0
e 257 165 1.0
e 257 189 2.0
e 257 30 1.0
e 257 214 1.0
e 257 135 1.0
e 257 44 2.0
e 258 287 1.0
e 258 296 2.0
e 258 312 1.0
e 258 128 1.0
e 258 145 1.0
e 258 141 1.0
e 258 193 47.0
e 258 95 1.0
e 259 67 1.0
e 259 249 1.0
e 259 284 2.0
e 259 298 2.0
e 259 5 36.0
e 259 63 1.0
e 259 238 1.0
e 259 280 1.0
e 260 192 1.0
e 260 282 1.0
e 260 28 1.0
e 260 68 1.0
e 260 48 1.0
e 260 117 1.0
e 260 166 1.0
e 260 291 1.0
e 261 111 1.0
e 261 158 1.0
e 261 230 2.0
e 261 94 1.0
e 261 290 1.0
e 261 155 1.0
e 261 113 1.0
e 261 317 2.0
e 262 190 1.0
e 262 139 1.0
e 262 313 2.0
e 262 287 1.0
e 262 275 3.0
e 262 164 1.0
e 262 3 2.0
e 263 248 5.0
e 263 121 4.0
e 263 18 7.0
e 263 251 31.0
e 263 286 19.0
e 263 299 18.0
e 263 207 46.0
e 263 193 13.0
e 263 315 11.0
e 263 123 24.0
e 264 187 1.0
e 264 127 1.0
e 264 108 1.0
e 264 273 2.0
e 264 64 1.0
e 264 272 2.0
e 264 6 1.0
e 264 44 1.0
e 265 266 2.0
e 265 259 1.0
e 265 190 1.0
e 265 98 2.0
e 265 211 1.0
e 265 73 1.0
e 265 135 1.0
e 265 117 2.0
e 266 315 48.0
e 266 258 2.0
e 266 76 2.0
e 266 135 2.0
e 266 121 1.0
e 266 69 1.0
e 266 245 1.0
e 267 142 1.0
e 267 202 1.0
e 267 70 1.0
e 267 214 1.0
e 267 62 11.0
e 267 88 1.0
e 267 124 1.0
e 267 251 2.0
e 268 253 1.0
e 268 190 1.0
e 268 281 2.0
e 268 103 1.0
e 268 113 1.0
e 268 152 1.0
e 268 195 1.0
e 268 132 1.0
e 269 201 2.0
e 269 261 1.0
e 269 241 2.0
e 269 78 1.0
e 269 283 3.0
e 269 107 1.0
e 269 282 2.0
e 269 229 26.0
e 270 133 2.0
e 270 281 1.0
e 270 118 2.0
e 270 15 1.0
e 270 276 1.0
e 270 31 41.0
e 270 314 2.0
e 270 175 2.0
e 271 242 1.0
e 271 215 1.0
e 271 170 1.0
e 271 86 1.0
e 271 216 1.0
e 271 38 1.0
e 271 132 1.0
e 271 171 1.0
e 272 102 2.0
e 272 136 2.0
e 272 269 1.0
e 272 150 2.0
e 272 298 2.0
e 272 183 1.0
e 272 208 1.0
e 272 307 1.0
e 273 118 2.0
e 273 187 2.0
e 273 193 21.0
e 273 44 1.0
e 273 84 1.0
e 273 113 1.0
e 273 25 2.0
e 273 237 2.0
e 274 111 2.0
e 274 235 1.0
e 274 266 1.0
e 274 205 2.0
e 274 306 2.0
e 274 52 2.0
e 274 142 2.0
e 275 144 2.0
e 275 86 1.0
e 275 313 1.0
e 275 195 1.0
e 275 232 2.0
e 275 23 1.0
e 275 231 1.0
e 275 112 1.0
e 276 258 1.0
e 276 286 1.0
e 276 177 28.0
e 276 230 2.0
e 276 199 1.0
e 276 187 1.0
e 276 315 3.0
e 276 303 1.0
e 277 242 2.0
e 277 117 1.0
e 277 190 1.0
e 277 161 2.0
e 277 240 2.0
e 277 221 1.0
e 277 196 1.0
e 278 218 2.0
e 278 58 2.0
e 278 279 1.0
e 278 182 2.0
e 278 274 1.0
e 278 29 1.0
e 278 316 2.0
e 278 280 1.0
e 279 289 1.0
e 279 186 1.0
e 279 194 7.0
e 279 149 1.0
e 279 285 1.0
e 279 245 2.0
e 279 105 1.0
e 280 63 1.0
e 280 83 44.0
e 280 293 1.0
e 280 7 1.0
e 280 43 1.0
e 280 103 1.0
e 280 108 1.0
e 280 268 1.0
e 281 228 2.0
e 281 299 1.0
e 281 1 1.0
e 281 70 1.0
e 281 19 21.0
e 281 189 1.0
e 281 265 1.0
e 281 218 1.0
e 282 84 1.0
e 282 75 1.0
e 282 1 1.0
e 282 88 1.0
e 282 280 1.0
e 282 249 3.0
e 282 135 1.0
e 283 41 1.0
e 283 92 1.0
e 283 142 1.0
e 283 49 1.0
e 283 118 1.0
e 283 35 1.0
e 283 74 1.0
e 283 45 2.0
e 284 83 42.0
e 284 283 1.0
e 284 172 1.0
e 284 43 1.0
e 284 188 1.0
e 284 86 1.0
e 284 183 35.0
e 284 37 1.0
e 285 158 1.0
e 285 12 1.0
e 285 170 1.0
e 285 73 1.0
e 285 111 1.0
e 285 254 2.0
e 285 74 1.0
e 285 151 2.0
e 286 23 1.0
e 286 27 1.0
e 286 34 1.0
e 286 161 1.0
e 286 235 1.0
e 286 67 1.0
e 287 125 2.0
e 287 136 2.0
e 287 268 1.0
e 287 55 2.0
e 287 50 2.0
e 287 12 1.0
e 287 170 2.0
e 288 30 1.0
e 288 133 1.0
e 288 277 1.0
e 288 118 1.0
e 288 269 2.0
e 288 292 1.0
e 288 161 2.0
e 288 57 1.0
e 289 146 1.0
e 289 88 2.0
e 289 260 1.0
e 289 38 1.0
e 289 296 1.0
e 289 270 2.0
e 289 93 1.0
e 289 160 1.0
e 290 191 1.0
e 290 94 1.0
e 290 135 2.0
e 290 83 8.0
e 290 108 1.0
e 290 127 1.0
e 290 59 1.0
e 290 89 1.0
e 291 212 1.0
e 291 265 2.0
e 291 234 1.0
e 291 165 1.0
e 291 156 1.0
e 291 280 1.0
e 291 4 1.0
e 292 61 1.0
e 292 33 1.0
e 292 77 1.0
e 292 79 1.0
e 292 135 1.0
e 292 174 1.0
e 292 195 2.0
e 293 317 1.0
e 293 105 1.0
e 293 137 1.0
e 293 183 10.0
e 293 229 14.0
e 293 96 1.0
e 293 298 2.0
e 294 159 2.0
e 294 5 15.0
e 294 182 2.0
e 294 110 1.0
e 294 218 1.0
e 294 68 2.0
e 294 275 1.0
e 294 119 1.0
e 295 291 1.0
e 295 131 1.0
e 295 168 1.0
e 295 301 1.0
e 295 129 1.0
e 295 83 19.0
e 295 147 1.0
e 295 19 23.0
e 296 1 1.0
e 296 137 1.0
e 296 195 2.0
e 296 294 1.0
e 296 219 1.0
e 296 64 1.0
e 296 75 2.0
e 296 90 1.0
e 297 237 1.0
e 297 188 1.0
e 297 255 1.0
e 297 228 1.0
e 297 141 1.0
e 297 291 1.0
e 297 311 2.0
e 298 134 1.0
e 298 275 1.0
e 298 205 1.0
e 298 274 3.0
e 298 115 1.0
e 298 180 2.0
e 298 0 32.0
e 299 273 2.0
e 299 64 1.0
e 299 20 1.0
e 299 142 1.0
e 299 172 2.0
e 299 143 1.0
e 299 111 1.0
e 299 100 2.0
e 300 250 1.0
e 300 4 1.0
e 300 245 1.0
e 300 269 1.0
e 300 16 1.0
e 300 156 1.0
e 300 87 1.0
e 300 84 1.0
e 301 98 1.0
e 301 168 1.0
e 301 126 3.0
e 301 43 1.0
e 301 95 2.0
e 301 89 2.0
e 302 96 1.0
e 302 26 8.0
e 302 52 1.0
e 302 81 2.0
e 302 46 2.0
e 302 164 2.0
e 302 59 1.0
e 302 215 2.0
e 303 124 1.0
e 303 81 1.0
e 303 175 1.0
e 303 102 1.0
e 303 49 1.0
e 303 79 1.0
e 303 135 2.0
e 303 24 1.0
e 304 199 1.0
e 304 117 1.0
e 304 302 2.0
e 304 262 1.0
e 304 237 1.0
e 304 49 1.0
e 304 76 1.0
e 304 8 1.0
e 305 210 1.0
e 305 74 1.0
e 305 292 1.0
e 305 303 1.0
e 305 238 1.0
e 305 272 2.0
e 305 47 1.0
e 305 143 1.0
e 306 106 1.0
e 306 215 1.0
e 306 242 1.0
e 306 210 1.0
e 306 60 1.0
e 306 259 2.0
e 306 265 1.0
e 307 313 1.0
e 307 44 1.0
e 307 60 1.0
e 307 153 1.0
e 307 95 1.0
e 307 112 3.0
e 307 167 1.0
e 308 13 34.0
e 308 138 1.0
e 308 54 1.0
e 308 180 1.0
e 308 96 1.0
e 308 145 1.0
e 308 318 1.0
e 308 43 1.0
e 309 176 1.0
e 309 264 1.0
e 309 43 1.0
e 309 115 1.0
e 309 139 1.0
e 309 209 3.0
e 309 145 1.0
e 309 127 1.0
e 310 270 2.0
e 310 204 2.0
e 310 191 2.0
e 310 61 1.0
e 310 3 1.0
e 310 116 3.0
e 310 132 2.0
e 310 277 1.0
e 311 300 2.0
e 311 253 1.0
e 311 40 2.0
e 311 79 2.0
e 311 163 3.0
e 311 168 1.0
e 311 265 1.0
e 311 3 1.0
e 312 292 1.0
e 312 8 2.0
e 312 50 1.0
e 312 206 1.0
e 312 135 1.0
e 312 157 2.0
e 312 5 45.0
e 313 184 1.0
e 313 38 1.0
e 313 155 1.0
e 313 101 2.0
e 313 244 1.0
e 313 203 1.0
e 313 283 1.0
e 314 55 1.0
e 314 107 1.0
e 314 40 1.0
e 314 3 1.0
e 314 22 1.0
e 314 89 1.0
e 314 64 1.0
e 314 205 1.0
e 315 304 36.0
e 315 207 49.0
e 315 262 2.0
e 315 292 27.0
e 315 305 48.0
e 315 121 5.0
e 315 278 38.0
e 315 222 49.0
e 316 118 2.0
e 316 124 3.0
e 316 287 1.0
e 316 181 1.0
e 316 127 1.0
e 316 303 1.0
e 316 313 2.0
e 316 89 3.0
e 317 315 40.0
e 317 116 2.0
e 317 39 3.0
e 317 43 1.0
e 317 213 1.0
e 317 290 1.0
e 317 228 1.0
e 317 190 1.0
e 318 171 2.0
e 318 79 1.0
e 318 313 1.0
e 318 67 1.0
e 318 127 1.0
e 318 286 2.0
e 318 178 1.0
e 319 68 2.0
e 319 37 1.0
e 319 235 1.0
e 319 211 1.0
e 319 61 2.0
e 319 174 1.0
e 319 73 3.0
e 319 183 45.0
